1663437
23, 12, 42, 16, 59, 36, 28, 50, 68, 51, 39, 62, 37, 15, 58, 9, 45, 54, 1, 18, 22, 34, 55, 26, 11, 7, 4, 8, 17, 64, 41, 25, 30, 6, 49, 19, 40, 56, 32, 61, 24, 47, 20, 48, 2, 35, 53, 27, 65, 13, 5, 60, 29, 3, 21, 31, 44, 14, 10, 33, 66, 38, 67, 63, 52, 57, 46, 43
